<instance>
<presentation name="EAV>WCSP" maxConstraintArity="2" maximize="false" format="XCSP 2.1_FRODO"/>

<agents nbAgents ="25">
  <agent name="agent0" />
  <agent name="agent1" />
  <agent name="agent2" />
  <agent name="agent3" />
  <agent name="agent4" />
  <agent name="agent5" />
  <agent name="agent6" />
  <agent name="agent7" />
  <agent name="agent8" />
  <agent name="agent9" />
  <agent name="agent10" />
  <agent name="agent11" />
  <agent name="agent12" />
  <agent name="agent13" />
  <agent name="agent14" />
  <agent name="agent15" />
  <agent name="agent16" />
  <agent name="agent17" />
  <agent name="agent18" />
  <agent name="agent19" />
  <agent name="agent20" />
  <agent name="agent21" />
  <agent name="agent22" />
  <agent name="agent23" />
  <agent name="agent24" />
</agents>

<domains nbDomains="1">
  <domain name="d4">0..3</domain>
</domains>

<variables nbVariables="25">
  <variable name="v0" domain="d4" agent="agent0" />
  <variable name="v1" domain="d4" agent="agent1" />
  <variable name="v2" domain="d4" agent="agent2" />
  <variable name="v3" domain="d4" agent="agent3" />
  <variable name="v4" domain="d4" agent="agent4" />
  <variable name="v5" domain="d4" agent="agent5" />
  <variable name="v6" domain="d4" agent="agent6" />
  <variable name="v7" domain="d4" agent="agent7" />
  <variable name="v8" domain="d4" agent="agent8" />
  <variable name="v9" domain="d4" agent="agent9" />
  <variable name="v10" domain="d4" agent="agent10" />
  <variable name="v11" domain="d4" agent="agent11" />
  <variable name="v12" domain="d4" agent="agent12" />
  <variable name="v13" domain="d4" agent="agent13" />
  <variable name="v14" domain="d4" agent="agent14" />
  <variable name="v15" domain="d4" agent="agent15" />
  <variable name="v16" domain="d4" agent="agent16" />
  <variable name="v17" domain="d4" agent="agent17" />
  <variable name="v18" domain="d4" agent="agent18" />
  <variable name="v19" domain="d4" agent="agent19" />
  <variable name="v20" domain="d4" agent="agent20" />
  <variable name="v21" domain="d4" agent="agent21" />
  <variable name="v22" domain="d4" agent="agent22" />
  <variable name="v23" domain="d4" agent="agent23" />
  <variable name="v24" domain="d4" agent="agent24" />
</variables>

<relations nbRelations="72">
  <relation name="0_1" arity="2" nbTuples="16" semantics="soft" defaultCost="0">
    39 : 3 1 | 124 : 3 0 | 10000 : 3 3 | 34 : 3 2 | 107 : 2 0 | 22 : 2 1 | 10000 : 2 2 | 30 : 2 3 | 41 : 1 3 | 28 : 1 2 | 10000 : 1 1 | 118 : 1 0 | 110 : 0 2 | 123 : 0 3 | 200 : 0 0 | 115 : 0 1 
  </relation>
  <relation name="0_5" arity="2" nbTuples="16" semantics="soft" defaultCost="0">
    46 : 3 1 | 124 : 3 0 | 10000 : 3 3 | 26 : 3 2 | 107 : 2 0 | 29 : 2 1 | 10000 : 2 2 | 30 : 2 3 | 41 : 1 3 | 20 : 1 2 | 10000 : 1 1 | 118 : 1 0 | 102 : 0 2 | 123 : 0 3 | 200 : 0 0 | 122 : 0 1 
  </relation>
  <relation name="0_6" arity="2" nbTuples="16" semantics="soft" defaultCost="0">
    34 : 3 1 | 124 : 3 0 | 10000 : 3 3 | 48 : 3 2 | 107 : 2 0 | 17 : 2 1 | 10000 : 2 2 | 18 : 2 3 | 29 : 1 3 | 42 : 1 2 | 10000 : 1 1 | 118 : 1 0 | 124 : 0 2 | 111 : 0 3 | 200 : 0 0 | 110 : 0 1 
  </relation>
  <relation name="1_2" arity="2" nbTuples="16" semantics="soft" defaultCost="0">
    26 : 3 1 | 123 : 3 0 | 10000 : 3 3 | 31 : 3 2 | 110 : 2 0 | 13 : 2 1 | 10000 : 2 2 | 30 : 2 3 | 35 : 1 3 | 23 : 1 2 | 10000 : 1 1 | 115 : 1 0 | 108 : 0 2 | 120 : 0 3 | 200 : 0 0 | 103 : 0 1 
  </relation>
  <relation name="1_5" arity="2" nbTuples="16" semantics="soft" defaultCost="0">
    45 : 3 1 | 123 : 3 0 | 10000 : 3 3 | 25 : 3 2 | 110 : 2 0 | 32 : 2 1 | 10000 : 2 2 | 33 : 2 3 | 38 : 1 3 | 17 : 1 2 | 10000 : 1 1 | 115 : 1 0 | 102 : 0 2 | 123 : 0 3 | 200 : 0 0 | 122 : 0 1 
  </relation>
  <relation name="1_6" arity="2" nbTuples="16" semantics="soft" defaultCost="0">
    33 : 3 1 | 123 : 3 0 | 10000 : 3 3 | 47 : 3 2 | 110 : 2 0 | 20 : 2 1 | 10000 : 2 2 | 21 : 2 3 | 26 : 1 3 | 39 : 1 2 | 10000 : 1 1 | 115 : 1 0 | 124 : 0 2 | 111 : 0 3 | 200 : 0 0 | 110 : 0 1 
  </relation>
  <relation name="1_7" arity="2" nbTuples="16" semantics="soft" defaultCost="0">
    38 : 3 1 | 123 : 3 0 | 10000 : 3 3 | 26 : 3 2 | 110 : 2 0 | 25 : 2 1 | 10000 : 2 2 | 12 : 2 3 | 17 : 1 3 | 18 : 1 2 | 10000 : 1 1 | 115 : 1 0 | 103 : 0 2 | 102 : 0 3 | 200 : 0 0 | 115 : 0 1 
  </relation>
  <relation name="2_8" arity="2" nbTuples="16" semantics="soft" defaultCost="0">
    24 : 3 1 | 120 : 3 0 | 10000 : 3 3 | 27 : 3 2 | 108 : 2 0 | 12 : 2 1 | 10000 : 2 2 | 12 : 2 3 | 7 : 1 3 | 10 : 1 2 | 10000 : 1 1 | 103 : 1 0 | 107 : 0 2 | 104 : 0 3 | 200 : 0 0 | 104 : 0 1 
  </relation>
  <relation name="2_3" arity="2" nbTuples="16" semantics="soft" defaultCost="0">
    41 : 3 1 | 120 : 3 0 | 10000 : 3 3 | 21 : 3 2 | 108 : 2 0 | 29 : 2 1 | 10000 : 2 2 | 19 : 2 3 | 14 : 1 3 | 4 : 1 2 | 10000 : 1 1 | 103 : 1 0 | 101 : 0 2 | 111 : 0 3 | 200 : 0 0 | 121 : 0 1 
  </relation>
  <relation name="2_6" arity="2" nbTuples="16" semantics="soft" defaultCost="0">
    30 : 3 1 | 120 : 3 0 | 10000 : 3 3 | 44 : 3 2 | 108 : 2 0 | 18 : 2 1 | 10000 : 2 2 | 19 : 2 3 | 14 : 1 3 | 27 : 1 2 | 10000 : 1 1 | 103 : 1 0 | 124 : 0 2 | 111 : 0 3 | 200 : 0 0 | 110 : 0 1 
  </relation>
  <relation name="2_7" arity="2" nbTuples="16" semantics="soft" defaultCost="0">
    35 : 3 1 | 120 : 3 0 | 10000 : 3 3 | 23 : 3 2 | 108 : 2 0 | 23 : 2 1 | 10000 : 2 2 | 10 : 2 3 | 5 : 1 3 | 6 : 1 2 | 10000 : 1 1 | 103 : 1 0 | 103 : 0 2 | 102 : 0 3 | 200 : 0 0 | 115 : 0 1 
  </relation>
  <relation name="3_8" arity="2" nbTuples="16" semantics="soft" defaultCost="0">
    15 : 3 1 | 111 : 3 0 | 10000 : 3 3 | 18 : 3 2 | 101 : 2 0 | 5 : 2 1 | 10000 : 2 2 | 5 : 2 3 | 25 : 1 3 | 28 : 1 2 | 10000 : 1 1 | 121 : 1 0 | 107 : 0 2 | 104 : 0 3 | 200 : 0 0 | 104 : 0 1 
  </relation>
  <relation name="3_9" arity="2" nbTuples="16" semantics="soft" defaultCost="0">
    31 : 3 1 | 111 : 3 0 | 10000 : 3 3 | 13 : 3 2 | 101 : 2 0 | 21 : 2 1 | 10000 : 2 2 | 14 : 2 3 | 34 : 1 3 | 23 : 1 2 | 10000 : 1 1 | 121 : 1 0 | 102 : 0 2 | 113 : 0 3 | 200 : 0 0 | 120 : 0 1 
  </relation>
  <relation name="3_4" arity="2" nbTuples="16" semantics="soft" defaultCost="0">
    32 : 3 1 | 111 : 3 0 | 10000 : 3 3 | 30 : 3 2 | 101 : 2 0 | 22 : 2 1 | 10000 : 2 2 | 22 : 2 3 | 42 : 1 3 | 40 : 1 2 | 10000 : 1 1 | 121 : 1 0 | 119 : 0 2 | 121 : 0 3 | 200 : 0 0 | 121 : 0 1 
  </relation>
  <relation name="3_7" arity="2" nbTuples="16" semantics="soft" defaultCost="0">
    26 : 3 1 | 111 : 3 0 | 10000 : 3 3 | 14 : 3 2 | 101 : 2 0 | 16 : 2 1 | 10000 : 2 2 | 3 : 2 3 | 23 : 1 3 | 24 : 1 2 | 10000 : 1 1 | 121 : 1 0 | 103 : 0 2 | 102 : 0 3 | 200 : 0 0 | 115 : 0 1 
  </relation>
  <relation name="4_8" arity="2" nbTuples="16" semantics="soft" defaultCost="0">
    25 : 3 1 | 121 : 3 0 | 10000 : 3 3 | 28 : 3 2 | 119 : 2 0 | 23 : 2 1 | 10000 : 2 2 | 23 : 2 3 | 25 : 1 3 | 28 : 1 2 | 10000 : 1 1 | 121 : 1 0 | 107 : 0 2 | 104 : 0 3 | 200 : 0 0 | 104 : 0 1 
  </relation>
  <relation name="4_9" arity="2" nbTuples="16" semantics="soft" defaultCost="0">
    41 : 3 1 | 121 : 3 0 | 10000 : 3 3 | 23 : 3 2 | 119 : 2 0 | 39 : 2 1 | 10000 : 2 2 | 32 : 2 3 | 34 : 1 3 | 23 : 1 2 | 10000 : 1 1 | 121 : 1 0 | 102 : 0 2 | 113 : 0 3 | 200 : 0 0 | 120 : 0 1 
  </relation>
  <relation name="5_10" arity="2" nbTuples="16" semantics="soft" defaultCost="0">
    35 : 3 1 | 123 : 3 0 | 10000 : 3 3 | 45 : 3 2 | 102 : 2 0 | 14 : 2 1 | 10000 : 2 2 | 24 : 2 3 | 44 : 1 3 | 44 : 1 2 | 10000 : 1 1 | 122 : 1 0 | 122 : 0 2 | 122 : 0 3 | 200 : 0 0 | 112 : 0 1 
  </relation>
  <relation name="5_11" arity="2" nbTuples="16" semantics="soft" defaultCost="0">
    36 : 3 1 | 123 : 3 0 | 10000 : 3 3 | 37 : 3 2 | 102 : 2 0 | 15 : 2 1 | 10000 : 2 2 | 9 : 2 3 | 29 : 1 3 | 36 : 1 2 | 10000 : 1 1 | 122 : 1 0 | 114 : 0 2 | 107 : 0 3 | 200 : 0 0 | 113 : 0 1 
  </relation>
  <relation name="5_6" arity="2" nbTuples="16" semantics="soft" defaultCost="0">
    33 : 3 1 | 123 : 3 0 | 10000 : 3 3 | 47 : 3 2 | 102 : 2 0 | 12 : 2 1 | 10000 : 2 2 | 13 : 2 3 | 33 : 1 3 | 46 : 1 2 | 10000 : 1 1 | 122 : 1 0 | 124 : 0 2 | 111 : 0 3 | 200 : 0 0 | 110 : 0 1 
  </relation>
  <relation name="6_7" arity="2" nbTuples="16" semantics="soft" defaultCost="0">
    26 : 3 1 | 111 : 3 0 | 10000 : 3 3 | 14 : 3 2 | 124 : 2 0 | 39 : 2 1 | 10000 : 2 2 | 26 : 2 3 | 12 : 1 3 | 13 : 1 2 | 10000 : 1 1 | 110 : 1 0 | 103 : 0 2 | 102 : 0 3 | 200 : 0 0 | 115 : 0 1 
  </relation>
  <relation name="6_10" arity="2" nbTuples="16" semantics="soft" defaultCost="0">
    23 : 3 1 | 111 : 3 0 | 10000 : 3 3 | 33 : 3 2 | 124 : 2 0 | 36 : 2 1 | 10000 : 2 2 | 46 : 2 3 | 32 : 1 3 | 32 : 1 2 | 10000 : 1 1 | 110 : 1 0 | 122 : 0 2 | 122 : 0 3 | 200 : 0 0 | 112 : 0 1 
  </relation>
  <relation name="6_11" arity="2" nbTuples="16" semantics="soft" defaultCost="0">
    24 : 3 1 | 111 : 3 0 | 10000 : 3 3 | 25 : 3 2 | 124 : 2 0 | 37 : 2 1 | 10000 : 2 2 | 31 : 2 3 | 17 : 1 3 | 24 : 1 2 | 10000 : 1 1 | 110 : 1 0 | 114 : 0 2 | 107 : 0 3 | 200 : 0 0 | 113 : 0 1 
  </relation>
  <relation name="6_12" arity="2" nbTuples="16" semantics="soft" defaultCost="0">
    22 : 3 1 | 111 : 3 0 | 10000 : 3 3 | 29 : 3 2 | 124 : 2 0 | 35 : 2 1 | 10000 : 2 2 | 40 : 2 3 | 26 : 1 3 | 28 : 1 2 | 10000 : 1 1 | 110 : 1 0 | 118 : 0 2 | 116 : 0 3 | 200 : 0 0 | 111 : 0 1 
  </relation>
  <relation name="7_8" arity="2" nbTuples="16" semantics="soft" defaultCost="0">
    6 : 3 1 | 102 : 3 0 | 10000 : 3 3 | 9 : 3 2 | 103 : 2 0 | 7 : 2 1 | 10000 : 2 2 | 7 : 2 3 | 19 : 1 3 | 22 : 1 2 | 10000 : 1 1 | 115 : 1 0 | 107 : 0 2 | 104 : 0 3 | 200 : 0 0 | 104 : 0 1 
  </relation>
  <relation name="7_11" arity="2" nbTuples="16" semantics="soft" defaultCost="0">
    15 : 3 1 | 102 : 3 0 | 10000 : 3 3 | 16 : 3 2 | 103 : 2 0 | 16 : 2 1 | 10000 : 2 2 | 10 : 2 3 | 22 : 1 3 | 29 : 1 2 | 10000 : 1 1 | 115 : 1 0 | 114 : 0 2 | 107 : 0 3 | 200 : 0 0 | 113 : 0 1 
  </relation>
  <relation name="7_12" arity="2" nbTuples="16" semantics="soft" defaultCost="0">
    13 : 3 1 | 102 : 3 0 | 10000 : 3 3 | 20 : 3 2 | 103 : 2 0 | 14 : 2 1 | 10000 : 2 2 | 19 : 2 3 | 31 : 1 3 | 33 : 1 2 | 10000 : 1 1 | 115 : 1 0 | 118 : 0 2 | 116 : 0 3 | 200 : 0 0 | 111 : 0 1 
  </relation>
  <relation name="7_13" arity="2" nbTuples="16" semantics="soft" defaultCost="0">
    8 : 3 1 | 102 : 3 0 | 10000 : 3 3 | 18 : 3 2 | 103 : 2 0 | 9 : 2 1 | 10000 : 2 2 | 20 : 2 3 | 32 : 1 3 | 31 : 1 2 | 10000 : 1 1 | 115 : 1 0 | 116 : 0 2 | 117 : 0 3 | 200 : 0 0 | 106 : 0 1 
  </relation>
  <relation name="8_9" arity="2" nbTuples="16" semantics="soft" defaultCost="0">
    24 : 3 1 | 104 : 3 0 | 10000 : 3 3 | 6 : 3 2 | 107 : 2 0 | 27 : 2 1 | 10000 : 2 2 | 20 : 2 3 | 17 : 1 3 | 6 : 1 2 | 10000 : 1 1 | 104 : 1 0 | 102 : 0 2 | 113 : 0 3 | 200 : 0 0 | 120 : 0 1 
  </relation>
  <relation name="8_12" arity="2" nbTuples="16" semantics="soft" defaultCost="0">
    15 : 3 1 | 104 : 3 0 | 10000 : 3 3 | 22 : 3 2 | 107 : 2 0 | 18 : 2 1 | 10000 : 2 2 | 23 : 2 3 | 20 : 1 3 | 22 : 1 2 | 10000 : 1 1 | 104 : 1 0 | 118 : 0 2 | 116 : 0 3 | 200 : 0 0 | 111 : 0 1 
  </relation>
  <relation name="8_13" arity="2" nbTuples="16" semantics="soft" defaultCost="0">
    10 : 3 1 | 104 : 3 0 | 10000 : 3 3 | 20 : 3 2 | 107 : 2 0 | 13 : 2 1 | 10000 : 2 2 | 24 : 2 3 | 21 : 1 3 | 20 : 1 2 | 10000 : 1 1 | 104 : 1 0 | 116 : 0 2 | 117 : 0 3 | 200 : 0 0 | 106 : 0 1 
  </relation>
  <relation name="8_14" arity="2" nbTuples="16" semantics="soft" defaultCost="0">
    21 : 3 1 | 104 : 3 0 | 10000 : 3 3 | 16 : 3 2 | 107 : 2 0 | 24 : 2 1 | 10000 : 2 2 | 20 : 2 3 | 17 : 1 3 | 16 : 1 2 | 10000 : 1 1 | 104 : 1 0 | 112 : 0 2 | 113 : 0 3 | 200 : 0 0 | 117 : 0 1 
  </relation>
  <relation name="9_13" arity="2" nbTuples="16" semantics="soft" defaultCost="0">
    19 : 3 1 | 113 : 3 0 | 10000 : 3 3 | 29 : 3 2 | 102 : 2 0 | 8 : 2 1 | 10000 : 2 2 | 19 : 2 3 | 37 : 1 3 | 36 : 1 2 | 10000 : 1 1 | 120 : 1 0 | 116 : 0 2 | 117 : 0 3 | 200 : 0 0 | 106 : 0 1 
  </relation>
  <relation name="9_14" arity="2" nbTuples="16" semantics="soft" defaultCost="0">
    30 : 3 1 | 113 : 3 0 | 10000 : 3 3 | 25 : 3 2 | 102 : 2 0 | 19 : 2 1 | 10000 : 2 2 | 15 : 2 3 | 33 : 1 3 | 32 : 1 2 | 10000 : 1 1 | 120 : 1 0 | 112 : 0 2 | 113 : 0 3 | 200 : 0 0 | 117 : 0 1 
  </relation>
  <relation name="10_16" arity="2" nbTuples="16" semantics="soft" defaultCost="0">
    36 : 3 1 | 122 : 3 0 | 10000 : 3 3 | 45 : 3 2 | 122 : 2 0 | 36 : 2 1 | 10000 : 2 2 | 39 : 2 3 | 29 : 1 3 | 35 : 1 2 | 10000 : 1 1 | 112 : 1 0 | 123 : 0 2 | 117 : 0 3 | 200 : 0 0 | 114 : 0 1 
  </relation>
  <relation name="10_11" arity="2" nbTuples="16" semantics="soft" defaultCost="0">
    35 : 3 1 | 122 : 3 0 | 10000 : 3 3 | 36 : 3 2 | 122 : 2 0 | 35 : 2 1 | 10000 : 2 2 | 29 : 2 3 | 19 : 1 3 | 26 : 1 2 | 10000 : 1 1 | 112 : 1 0 | 114 : 0 2 | 107 : 0 3 | 200 : 0 0 | 113 : 0 1 
  </relation>
  <relation name="10_15" arity="2" nbTuples="16" semantics="soft" defaultCost="0">
    38 : 3 1 | 122 : 3 0 | 10000 : 3 3 | 33 : 3 2 | 122 : 2 0 | 38 : 2 1 | 10000 : 2 2 | 40 : 2 3 | 30 : 1 3 | 23 : 1 2 | 10000 : 1 1 | 112 : 1 0 | 111 : 0 2 | 118 : 0 3 | 200 : 0 0 | 116 : 0 1 
  </relation>
  <relation name="11_12" arity="2" nbTuples="16" semantics="soft" defaultCost="0">
    18 : 3 1 | 107 : 3 0 | 10000 : 3 3 | 25 : 3 2 | 114 : 2 0 | 25 : 2 1 | 10000 : 2 2 | 30 : 2 3 | 29 : 1 3 | 31 : 1 2 | 10000 : 1 1 | 113 : 1 0 | 118 : 0 2 | 116 : 0 3 | 200 : 0 0 | 111 : 0 1 
  </relation>
  <relation name="11_15" arity="2" nbTuples="16" semantics="soft" defaultCost="0">
    23 : 3 1 | 107 : 3 0 | 10000 : 3 3 | 18 : 3 2 | 114 : 2 0 | 30 : 2 1 | 10000 : 2 2 | 32 : 2 3 | 31 : 1 3 | 24 : 1 2 | 10000 : 1 1 | 113 : 1 0 | 111 : 0 2 | 118 : 0 3 | 200 : 0 0 | 116 : 0 1 
  </relation>
  <relation name="11_16" arity="2" nbTuples="16" semantics="soft" defaultCost="0">
    21 : 3 1 | 107 : 3 0 | 10000 : 3 3 | 30 : 3 2 | 114 : 2 0 | 28 : 2 1 | 10000 : 2 2 | 31 : 2 3 | 30 : 1 3 | 36 : 1 2 | 10000 : 1 1 | 113 : 1 0 | 123 : 0 2 | 117 : 0 3 | 200 : 0 0 | 114 : 0 1 
  </relation>
  <relation name="11_17" arity="2" nbTuples="16" semantics="soft" defaultCost="0">
    8 : 3 1 | 107 : 3 0 | 10000 : 3 3 | 20 : 3 2 | 114 : 2 0 | 15 : 2 1 | 10000 : 2 2 | 36 : 2 3 | 35 : 1 3 | 26 : 1 2 | 10000 : 1 1 | 113 : 1 0 | 113 : 0 2 | 122 : 0 3 | 200 : 0 0 | 101 : 0 1 
  </relation>
  <relation name="12_13" arity="2" nbTuples="16" semantics="soft" defaultCost="0">
    22 : 3 1 | 116 : 3 0 | 10000 : 3 3 | 32 : 3 2 | 118 : 2 0 | 24 : 2 1 | 10000 : 2 2 | 35 : 2 3 | 28 : 1 3 | 27 : 1 2 | 10000 : 1 1 | 111 : 1 0 | 116 : 0 2 | 117 : 0 3 | 200 : 0 0 | 106 : 0 1 
  </relation>
  <relation name="12_16" arity="2" nbTuples="16" semantics="soft" defaultCost="0">
    30 : 3 1 | 116 : 3 0 | 10000 : 3 3 | 39 : 3 2 | 118 : 2 0 | 32 : 2 1 | 10000 : 2 2 | 35 : 2 3 | 28 : 1 3 | 34 : 1 2 | 10000 : 1 1 | 111 : 1 0 | 123 : 0 2 | 117 : 0 3 | 200 : 0 0 | 114 : 0 1 
  </relation>
  <relation name="12_17" arity="2" nbTuples="16" semantics="soft" defaultCost="0">
    17 : 3 1 | 116 : 3 0 | 10000 : 3 3 | 29 : 3 2 | 118 : 2 0 | 19 : 2 1 | 10000 : 2 2 | 40 : 2 3 | 33 : 1 3 | 24 : 1 2 | 10000 : 1 1 | 111 : 1 0 | 113 : 0 2 | 122 : 0 3 | 200 : 0 0 | 101 : 0 1 
  </relation>
  <relation name="12_18" arity="2" nbTuples="16" semantics="soft" defaultCost="0">
    21 : 3 1 | 116 : 3 0 | 10000 : 3 3 | 34 : 3 2 | 118 : 2 0 | 23 : 2 1 | 10000 : 2 2 | 22 : 2 3 | 15 : 1 3 | 29 : 1 2 | 10000 : 1 1 | 111 : 1 0 | 118 : 0 2 | 104 : 0 3 | 200 : 0 0 | 105 : 0 1 
  </relation>
  <relation name="13_14" arity="2" nbTuples="16" semantics="soft" defaultCost="0">
    34 : 3 1 | 117 : 3 0 | 10000 : 3 3 | 29 : 3 2 | 116 : 2 0 | 33 : 2 1 | 10000 : 2 2 | 29 : 2 3 | 19 : 1 3 | 18 : 1 2 | 10000 : 1 1 | 106 : 1 0 | 112 : 0 2 | 113 : 0 3 | 200 : 0 0 | 117 : 0 1 
  </relation>
  <relation name="13_17" arity="2" nbTuples="16" semantics="soft" defaultCost="0">
    18 : 3 1 | 117 : 3 0 | 10000 : 3 3 | 30 : 3 2 | 116 : 2 0 | 17 : 2 1 | 10000 : 2 2 | 38 : 2 3 | 28 : 1 3 | 19 : 1 2 | 10000 : 1 1 | 106 : 1 0 | 113 : 0 2 | 122 : 0 3 | 200 : 0 0 | 101 : 0 1 
  </relation>
  <relation name="13_18" arity="2" nbTuples="16" semantics="soft" defaultCost="0">
    22 : 3 1 | 117 : 3 0 | 10000 : 3 3 | 35 : 3 2 | 116 : 2 0 | 21 : 2 1 | 10000 : 2 2 | 20 : 2 3 | 10 : 1 3 | 24 : 1 2 | 10000 : 1 1 | 106 : 1 0 | 118 : 0 2 | 104 : 0 3 | 200 : 0 0 | 105 : 0 1 
  </relation>
  <relation name="13_19" arity="2" nbTuples="16" semantics="soft" defaultCost="0">
    28 : 3 1 | 117 : 3 0 | 10000 : 3 3 | 30 : 3 2 | 116 : 2 0 | 27 : 2 1 | 10000 : 2 2 | 25 : 2 3 | 15 : 1 3 | 19 : 1 2 | 10000 : 1 1 | 106 : 1 0 | 113 : 0 2 | 109 : 0 3 | 200 : 0 0 | 111 : 0 1 
  </relation>
  <relation name="14_18" arity="2" nbTuples="16" semantics="soft" defaultCost="0">
    18 : 3 1 | 113 : 3 0 | 10000 : 3 3 | 31 : 3 2 | 112 : 2 0 | 17 : 2 1 | 10000 : 2 2 | 16 : 2 3 | 21 : 1 3 | 35 : 1 2 | 10000 : 1 1 | 117 : 1 0 | 118 : 0 2 | 104 : 0 3 | 200 : 0 0 | 105 : 0 1 
  </relation>
  <relation name="14_19" arity="2" nbTuples="16" semantics="soft" defaultCost="0">
    24 : 3 1 | 113 : 3 0 | 10000 : 3 3 | 26 : 3 2 | 112 : 2 0 | 23 : 2 1 | 10000 : 2 2 | 21 : 2 3 | 26 : 1 3 | 30 : 1 2 | 10000 : 1 1 | 117 : 1 0 | 113 : 0 2 | 109 : 0 3 | 200 : 0 0 | 111 : 0 1 
  </relation>
  <relation name="15_16" arity="2" nbTuples="16" semantics="soft" defaultCost="0">
    32 : 3 1 | 118 : 3 0 | 10000 : 3 3 | 41 : 3 2 | 111 : 2 0 | 25 : 2 1 | 10000 : 2 2 | 28 : 2 3 | 33 : 1 3 | 39 : 1 2 | 10000 : 1 1 | 116 : 1 0 | 123 : 0 2 | 117 : 0 3 | 200 : 0 0 | 114 : 0 1 
  </relation>
  <relation name="15_20" arity="2" nbTuples="16" semantics="soft" defaultCost="0">
    42 : 3 1 | 118 : 3 0 | 10000 : 3 3 | 20 : 3 2 | 111 : 2 0 | 35 : 2 1 | 10000 : 2 2 | 17 : 2 3 | 22 : 1 3 | 18 : 1 2 | 10000 : 1 1 | 116 : 1 0 | 102 : 0 2 | 106 : 0 3 | 200 : 0 0 | 124 : 0 1 
  </relation>
  <relation name="15_21" arity="2" nbTuples="16" semantics="soft" defaultCost="0">
    39 : 3 1 | 118 : 3 0 | 10000 : 3 3 | 36 : 3 2 | 111 : 2 0 | 32 : 2 1 | 10000 : 2 2 | 34 : 2 3 | 39 : 1 3 | 34 : 1 2 | 10000 : 1 1 | 116 : 1 0 | 118 : 0 2 | 123 : 0 3 | 200 : 0 0 | 121 : 0 1 
  </relation>
  <relation name="16_17" arity="2" nbTuples="16" semantics="soft" defaultCost="0">
    18 : 3 1 | 117 : 3 0 | 10000 : 3 3 | 30 : 3 2 | 123 : 2 0 | 24 : 2 1 | 10000 : 2 2 | 45 : 2 3 | 36 : 1 3 | 27 : 1 2 | 10000 : 1 1 | 114 : 1 0 | 113 : 0 2 | 122 : 0 3 | 200 : 0 0 | 101 : 0 1 
  </relation>
  <relation name="16_20" arity="2" nbTuples="16" semantics="soft" defaultCost="0">
    41 : 3 1 | 117 : 3 0 | 10000 : 3 3 | 19 : 3 2 | 123 : 2 0 | 47 : 2 1 | 10000 : 2 2 | 29 : 2 3 | 20 : 1 3 | 16 : 1 2 | 10000 : 1 1 | 114 : 1 0 | 102 : 0 2 | 106 : 0 3 | 200 : 0 0 | 124 : 0 1 
  </relation>
  <relation name="16_21" arity="2" nbTuples="16" semantics="soft" defaultCost="0">
    38 : 3 1 | 117 : 3 0 | 10000 : 3 3 | 35 : 3 2 | 123 : 2 0 | 44 : 2 1 | 10000 : 2 2 | 46 : 2 3 | 37 : 1 3 | 32 : 1 2 | 10000 : 1 1 | 114 : 1 0 | 118 : 0 2 | 123 : 0 3 | 200 : 0 0 | 121 : 0 1 
  </relation>
  <relation name="16_22" arity="2" nbTuples="16" semantics="soft" defaultCost="0">
    21 : 3 1 | 117 : 3 0 | 10000 : 3 3 | 21 : 3 2 | 123 : 2 0 | 27 : 2 1 | 10000 : 2 2 | 39 : 2 3 | 30 : 1 3 | 18 : 1 2 | 10000 : 1 1 | 114 : 1 0 | 104 : 0 2 | 116 : 0 3 | 200 : 0 0 | 104 : 0 1 
  </relation>
  <relation name="17_18" arity="2" nbTuples="16" semantics="soft" defaultCost="0">
    27 : 3 1 | 122 : 3 0 | 10000 : 3 3 | 40 : 3 2 | 113 : 2 0 | 18 : 2 1 | 10000 : 2 2 | 17 : 2 3 | 5 : 1 3 | 19 : 1 2 | 10000 : 1 1 | 101 : 1 0 | 118 : 0 2 | 104 : 0 3 | 200 : 0 0 | 105 : 0 1 
  </relation>
  <relation name="17_21" arity="2" nbTuples="16" semantics="soft" defaultCost="0">
    43 : 3 1 | 122 : 3 0 | 10000 : 3 3 | 40 : 3 2 | 113 : 2 0 | 34 : 2 1 | 10000 : 2 2 | 36 : 2 3 | 24 : 1 3 | 19 : 1 2 | 10000 : 1 1 | 101 : 1 0 | 118 : 0 2 | 123 : 0 3 | 200 : 0 0 | 121 : 0 1 
  </relation>
  <relation name="17_22" arity="2" nbTuples="16" semantics="soft" defaultCost="0">
    26 : 3 1 | 122 : 3 0 | 10000 : 3 3 | 26 : 3 2 | 113 : 2 0 | 17 : 2 1 | 10000 : 2 2 | 29 : 2 3 | 17 : 1 3 | 5 : 1 2 | 10000 : 1 1 | 101 : 1 0 | 104 : 0 2 | 116 : 0 3 | 200 : 0 0 | 104 : 0 1 
  </relation>
  <relation name="17_23" arity="2" nbTuples="16" semantics="soft" defaultCost="0">
    44 : 3 1 | 122 : 3 0 | 10000 : 3 3 | 35 : 3 2 | 113 : 2 0 | 35 : 2 1 | 10000 : 2 2 | 20 : 2 3 | 8 : 1 3 | 14 : 1 2 | 10000 : 1 1 | 101 : 1 0 | 113 : 0 2 | 107 : 0 3 | 200 : 0 0 | 122 : 0 1 
  </relation>
  <relation name="18_19" arity="2" nbTuples="16" semantics="soft" defaultCost="0">
    15 : 3 1 | 104 : 3 0 | 10000 : 3 3 | 17 : 3 2 | 118 : 2 0 | 29 : 2 1 | 10000 : 2 2 | 27 : 2 3 | 14 : 1 3 | 18 : 1 2 | 10000 : 1 1 | 105 : 1 0 | 113 : 0 2 | 109 : 0 3 | 200 : 0 0 | 111 : 0 1 
  </relation>
  <relation name="18_22" arity="2" nbTuples="16" semantics="soft" defaultCost="0">
    8 : 3 1 | 104 : 3 0 | 10000 : 3 3 | 8 : 3 2 | 118 : 2 0 | 22 : 2 1 | 10000 : 2 2 | 34 : 2 3 | 21 : 1 3 | 9 : 1 2 | 10000 : 1 1 | 105 : 1 0 | 104 : 0 2 | 116 : 0 3 | 200 : 0 0 | 104 : 0 1 
  </relation>
  <relation name="18_23" arity="2" nbTuples="16" semantics="soft" defaultCost="0">
    26 : 3 1 | 104 : 3 0 | 10000 : 3 3 | 17 : 3 2 | 118 : 2 0 | 40 : 2 1 | 10000 : 2 2 | 25 : 2 3 | 12 : 1 3 | 18 : 1 2 | 10000 : 1 1 | 105 : 1 0 | 113 : 0 2 | 107 : 0 3 | 200 : 0 0 | 122 : 0 1 
  </relation>
  <relation name="18_24" arity="2" nbTuples="16" semantics="soft" defaultCost="0">
    20 : 3 1 | 104 : 3 0 | 10000 : 3 3 | 11 : 3 2 | 118 : 2 0 | 34 : 2 1 | 10000 : 2 2 | 39 : 2 3 | 26 : 1 3 | 12 : 1 2 | 10000 : 1 1 | 105 : 1 0 | 107 : 0 2 | 121 : 0 3 | 200 : 0 0 | 116 : 0 1 
  </relation>
  <relation name="19_24" arity="2" nbTuples="16" semantics="soft" defaultCost="0">
    25 : 3 1 | 109 : 3 0 | 10000 : 3 3 | 16 : 3 2 | 113 : 2 0 | 29 : 2 1 | 10000 : 2 2 | 34 : 2 3 | 32 : 1 3 | 18 : 1 2 | 10000 : 1 1 | 111 : 1 0 | 107 : 0 2 | 121 : 0 3 | 200 : 0 0 | 116 : 0 1 
  </relation>
  <relation name="19_23" arity="2" nbTuples="16" semantics="soft" defaultCost="0">
    31 : 3 1 | 109 : 3 0 | 10000 : 3 3 | 22 : 3 2 | 113 : 2 0 | 35 : 2 1 | 10000 : 2 2 | 20 : 2 3 | 18 : 1 3 | 24 : 1 2 | 10000 : 1 1 | 111 : 1 0 | 113 : 0 2 | 107 : 0 3 | 200 : 0 0 | 122 : 0 1 
  </relation>
  <relation name="20_21" arity="2" nbTuples="16" semantics="soft" defaultCost="0">
    27 : 3 1 | 106 : 3 0 | 10000 : 3 3 | 24 : 3 2 | 102 : 2 0 | 23 : 2 1 | 10000 : 2 2 | 25 : 2 3 | 47 : 1 3 | 42 : 1 2 | 10000 : 1 1 | 124 : 1 0 | 118 : 0 2 | 123 : 0 3 | 200 : 0 0 | 121 : 0 1 
  </relation>
  <relation name="21_22" arity="2" nbTuples="16" semantics="soft" defaultCost="0">
    27 : 3 1 | 123 : 3 0 | 10000 : 3 3 | 27 : 3 2 | 118 : 2 0 | 22 : 2 1 | 10000 : 2 2 | 34 : 2 3 | 37 : 1 3 | 25 : 1 2 | 10000 : 1 1 | 121 : 1 0 | 104 : 0 2 | 116 : 0 3 | 200 : 0 0 | 104 : 0 1 
  </relation>
  <relation name="22_23" arity="2" nbTuples="16" semantics="soft" defaultCost="0">
    38 : 3 1 | 116 : 3 0 | 10000 : 3 3 | 29 : 3 2 | 104 : 2 0 | 26 : 2 1 | 10000 : 2 2 | 11 : 2 3 | 11 : 1 3 | 17 : 1 2 | 10000 : 1 1 | 104 : 1 0 | 113 : 0 2 | 107 : 0 3 | 200 : 0 0 | 122 : 0 1 
  </relation>
  <relation name="23_24" arity="2" nbTuples="16" semantics="soft" defaultCost="0">
    23 : 3 1 | 107 : 3 0 | 10000 : 3 3 | 14 : 3 2 | 113 : 2 0 | 29 : 2 1 | 10000 : 2 2 | 34 : 2 3 | 43 : 1 3 | 29 : 1 2 | 10000 : 1 1 | 122 : 1 0 | 107 : 0 2 | 121 : 0 3 | 200 : 0 0 | 116 : 0 1 
  </relation>
</relations>

<constraints nbConstraints="72">
  <constraint name="0_1" arity="2" scope="v0 v1" reference="0_1" />
  <constraint name="0_5" arity="2" scope="v0 v5" reference="0_5" />
  <constraint name="0_6" arity="2" scope="v0 v6" reference="0_6" />
  <constraint name="1_2" arity="2" scope="v1 v2" reference="1_2" />
  <constraint name="1_5" arity="2" scope="v1 v5" reference="1_5" />
  <constraint name="1_6" arity="2" scope="v1 v6" reference="1_6" />
  <constraint name="1_7" arity="2" scope="v1 v7" reference="1_7" />
  <constraint name="2_8" arity="2" scope="v2 v8" reference="2_8" />
  <constraint name="2_3" arity="2" scope="v2 v3" reference="2_3" />
  <constraint name="2_6" arity="2" scope="v2 v6" reference="2_6" />
  <constraint name="2_7" arity="2" scope="v2 v7" reference="2_7" />
  <constraint name="3_8" arity="2" scope="v3 v8" reference="3_8" />
  <constraint name="3_9" arity="2" scope="v3 v9" reference="3_9" />
  <constraint name="3_4" arity="2" scope="v3 v4" reference="3_4" />
  <constraint name="3_7" arity="2" scope="v3 v7" reference="3_7" />
  <constraint name="4_8" arity="2" scope="v4 v8" reference="4_8" />
  <constraint name="4_9" arity="2" scope="v4 v9" reference="4_9" />
  <constraint name="5_10" arity="2" scope="v5 v10" reference="5_10" />
  <constraint name="5_11" arity="2" scope="v5 v11" reference="5_11" />
  <constraint name="5_6" arity="2" scope="v5 v6" reference="5_6" />
  <constraint name="6_7" arity="2" scope="v6 v7" reference="6_7" />
  <constraint name="6_10" arity="2" scope="v6 v10" reference="6_10" />
  <constraint name="6_11" arity="2" scope="v6 v11" reference="6_11" />
  <constraint name="6_12" arity="2" scope="v6 v12" reference="6_12" />
  <constraint name="7_8" arity="2" scope="v7 v8" reference="7_8" />
  <constraint name="7_11" arity="2" scope="v7 v11" reference="7_11" />
  <constraint name="7_12" arity="2" scope="v7 v12" reference="7_12" />
  <constraint name="7_13" arity="2" scope="v7 v13" reference="7_13" />
  <constraint name="8_9" arity="2" scope="v8 v9" reference="8_9" />
  <constraint name="8_12" arity="2" scope="v8 v12" reference="8_12" />
  <constraint name="8_13" arity="2" scope="v8 v13" reference="8_13" />
  <constraint name="8_14" arity="2" scope="v8 v14" reference="8_14" />
  <constraint name="9_13" arity="2" scope="v9 v13" reference="9_13" />
  <constraint name="9_14" arity="2" scope="v9 v14" reference="9_14" />
  <constraint name="10_16" arity="2" scope="v10 v16" reference="10_16" />
  <constraint name="10_11" arity="2" scope="v10 v11" reference="10_11" />
  <constraint name="10_15" arity="2" scope="v10 v15" reference="10_15" />
  <constraint name="11_12" arity="2" scope="v11 v12" reference="11_12" />
  <constraint name="11_15" arity="2" scope="v11 v15" reference="11_15" />
  <constraint name="11_16" arity="2" scope="v11 v16" reference="11_16" />
  <constraint name="11_17" arity="2" scope="v11 v17" reference="11_17" />
  <constraint name="12_13" arity="2" scope="v12 v13" reference="12_13" />
  <constraint name="12_16" arity="2" scope="v12 v16" reference="12_16" />
  <constraint name="12_17" arity="2" scope="v12 v17" reference="12_17" />
  <constraint name="12_18" arity="2" scope="v12 v18" reference="12_18" />
  <constraint name="13_14" arity="2" scope="v13 v14" reference="13_14" />
  <constraint name="13_17" arity="2" scope="v13 v17" reference="13_17" />
  <constraint name="13_18" arity="2" scope="v13 v18" reference="13_18" />
  <constraint name="13_19" arity="2" scope="v13 v19" reference="13_19" />
  <constraint name="14_18" arity="2" scope="v14 v18" reference="14_18" />
  <constraint name="14_19" arity="2" scope="v14 v19" reference="14_19" />
  <constraint name="15_16" arity="2" scope="v15 v16" reference="15_16" />
  <constraint name="15_20" arity="2" scope="v15 v20" reference="15_20" />
  <constraint name="15_21" arity="2" scope="v15 v21" reference="15_21" />
  <constraint name="16_17" arity="2" scope="v16 v17" reference="16_17" />
  <constraint name="16_20" arity="2" scope="v16 v20" reference="16_20" />
  <constraint name="16_21" arity="2" scope="v16 v21" reference="16_21" />
  <constraint name="16_22" arity="2" scope="v16 v22" reference="16_22" />
  <constraint name="17_18" arity="2" scope="v17 v18" reference="17_18" />
  <constraint name="17_21" arity="2" scope="v17 v21" reference="17_21" />
  <constraint name="17_22" arity="2" scope="v17 v22" reference="17_22" />
  <constraint name="17_23" arity="2" scope="v17 v23" reference="17_23" />
  <constraint name="18_19" arity="2" scope="v18 v19" reference="18_19" />
  <constraint name="18_22" arity="2" scope="v18 v22" reference="18_22" />
  <constraint name="18_23" arity="2" scope="v18 v23" reference="18_23" />
  <constraint name="18_24" arity="2" scope="v18 v24" reference="18_24" />
  <constraint name="19_24" arity="2" scope="v19 v24" reference="19_24" />
  <constraint name="19_23" arity="2" scope="v19 v23" reference="19_23" />
  <constraint name="20_21" arity="2" scope="v20 v21" reference="20_21" />
  <constraint name="21_22" arity="2" scope="v21 v22" reference="21_22" />
  <constraint name="22_23" arity="2" scope="v22 v23" reference="22_23" />
  <constraint name="23_24" arity="2" scope="v23 v24" reference="23_24" />
</constraints>
</instance >